58 80
7 4 1
3 1 3
7 6 1
2 8 1
4 9 2
2 6 2
7 7 2
6 3 1
7 2 2
8 3 1
3 4 1
9 1 1
1 8 3
10 1 1
6 7 4
5 9 1
7 3 1
3 8 1
9 6 1
5 2 2
1 5 1
4 8 1
3 6 1
10 7 1
10 5 1
2 5 1
9 5 1
6 9 2
2 10 1
9 9 1
2 7 2
2 1 1
9 8 3
10 2 2
10 3 1
1 3 1
6 6 2
3 9 1
5 8 1
8 9 2
6 1 1
4 5 1
4 7 3
5 5 1
9 2 1
3 3 2
8 8 1
8 2 1
5 4 1
7 8 1
9 4 1
8 4 1
1 10 1
5 6 1
5 3 1
1 9 1
4 1 1
4 6 1
30 30 
30 30 
30 30 
30 30 
30 30 
30 30 
30 30 
30 30 
30 30 
30 30 
30 30 
30 30 
30 30 
30 30 
30 30 
30 30 
30 30 
30 30 
30 30 
30 30 
30 30 
30 30 
30 30 
30 30 
30 30 
30 30 
30 30 
30 30 
30 30 
30 30 
30 30 
30 30 
30 30 
30 30 
30 30 
30 30 
30 30 
30 30 
30 30 
30 30 
30 30 
30 30 
30 30 
30 30 
30 30 
30 30 
30 30 
30 30 
30 30 
30 30 
30 30 
30 30 
30 30 
30 30 
30 30 
30 30 
30 30 
30 30 
30 30 
30 30 
30 30 
30 30 
30 30 
30 30 
30 30 
30 30 
30 30 
30 30 
30 30 
30 30 
30 30 
30 30 
30 30 
30 30 
30 30 
30 30 
30 30 
30 30 
30 30 
30 30 
